P = 10;
T = 48;

plant_type = [Fossil, Fossil, Fossil, Nuclear, Nuclear, Renewable, Renewable, Renewable, Renewable, Renewable];
cost_per_unit = [20, 18, 15, 10, 8, 4, 3, 2, 5, 6];
fixed_cost = [200, 180, 150, 350, 300, 100, 80, 60, 120, 150];
min_output = [30, 25, 20, 40, 35, 0, 0, 0, 0, 0];
max_output = [150, 130, 110, 100, 90, 80, 70, 60, 50, 40];
ramp_rate = [30, 25, 20, 15, 20, 50, 40, 30, 35, 25];
emissions = [12, 11, 10, 2, 1, 0, 0, 0, 0, 0];
emission_limit = [1500, 1300, 1100, 500, 400, 0, 0, 0, 0, 0];

demand = array1d(1..48, 
    [50 + floor(10*sin(i/4.0)) + floor(30*sin((i+6)/12.0)) | i in 1..48]);

transmission_cap = [400 | _ in 1..48];

renewable_availability = 
    [| 0, 0, 0, 0, 0, 0, 0, 0, 0, 0, 0, 0, 0, 0, 0, 0, 0, 0, 0, 0, 0, 0, 0, 0, 
       0, 0, 0, 0, 0, 0, 0, 0, 0, 0, 0, 0, 0, 0, 0, 0, 0, 0, 0, 0, 0, 0, 0, 0
     | 0, 0, 0, 0, 0, 0, 0, 0, 0, 0, 0, 0, 0, 0, 0, 0, 0, 0, 0, 0, 0, 0, 0, 0, 
       0, 0, 0, 0, 0, 0, 0, 0, 0, 0, 0, 0, 0, 0, 0, 0, 0, 0, 0, 0, 0, 0, 0, 0
     | 0, 0, 0, 0, 0, 0, 0, 0, 0, 0, 0, 0, 0, 0, 0, 0, 0, 0, 0, 0, 0, 0, 0, 0, 
       0, 0, 0, 0, 0, 0, 0, 0, 0, 0, 0, 0, 0, 0, 0, 0, 0, 0, 0, 0, 0, 0, 0, 0
     | 0, 0, 0, 0, 0, 0, 0, 0, 0, 0, 0, 0, 0, 0, 0, 0, 0, 0, 0, 0, 0, 0, 0, 0, 
       0, 0, 0, 0, 0, 0, 0, 0, 0, 0, 0, 0, 0, 0, 0, 0, 0, 0, 0, 0, 0, 0, 0, 0
     | 0, 0, 0, 0, 0, 0, 0, 0, 0, 0, 0, 0, 0, 0, 0, 0, 0, 0, 0, 0, 0, 0, 0, 0, 
       0, 0, 0, 0, 0, 0, 0, 0, 0, 0, 0, 0, 0, 0, 0, 0, 0, 0, 0, 0, 0, 0, 0, 0
     | 0, 0, 0, 0, 0, 0, 0, 0, 0, 0, 0, 0, 0, 0, 0, 0, 0, 0, 0, 0, 0, 0, 0, 0, 
       0, 0, 0, 0, 0, 0, 0, 0, 0, 0, 0, 0, 0, 0, 0, 0, 0, 0, 0, 0, 0, 0, 0, 0
     | 0, 0, 0, 0, 0, 0, 0, 0, 0, 0, 0, 0, 0, 0, 0, 0, 0, 0, 0, 0, 0, 0, 0, 0, 
       0, 0, 0, 0, 0, 0, 0, 0, 0, 0, 0, 0, 0, 0, 0, 0, 0, 0, 0, 0, 0, 0, 0, 0
     | 0, 0, 0, 0, 5, 10, 20, 30, 40, 50, 60, 70, 80, 70, 60, 50, 40, 30, 20, 10, 5, 0, 0, 0, 
       0, 0, 0, 0, 5, 10, 20, 30, 40, 50, 60, 70, 80, 70, 60, 50, 40, 30, 20, 10, 5, 0, 0, 0
     | 30, 35, 40, 35, 30, 25, 30, 35, 40, 35, 30, 25, 30, 35, 40, 35, 30, 25, 30, 35, 40, 35, 30, 25, 
       30, 35, 40, 35, 30, 25, 30, 35, 40, 35, 30, 25, 30, 35, 40, 35, 30, 25, 30, 35, 40, 35, 30, 25
     | 15, 20, 25, 30, 35, 30, 25, 20, 15, 20, 25, 30, 35, 30, 25, 20, 15, 20, 25, 30, 35, 30, 25, 20, 
       15, 20, 25, 30, 35, 30, 25, 20, 15, 20, 25, 30, 35, 30, 25, 20, 15, 20, 25, 30, 35, 30, 25, 20 |];
       
% Total Minimal Cost: 15359